40
1 0 2
2 0 6
3 0 2
3 1 6
3 2 8
4 0 8
4 1 8
4 2 7
4 3 5
5 0 9
5 1 8
5 2 3
5 4 4
6 0 3
6 1 2
6 2 3
6 5 5
7 0 8
7 1 8
7 2 2
7 3 8
7 4 9
7 5 3
7 6 4
8 0 6
8 1 7
8 2 2
8 3 10
8 4 7
8 5 5
8 7 6
9 0 9
9 1 2
9 4 5
9 5 5
9 6 1
9 7 8
10 0 7
10 1 4
10 2 5
10 3 4
10 4 9
10 5 9
10 6 6
10 8 4
11 1 9
11 3 4
11 5 8
11 6 3
11 7 6
11 8 3
12 0 8
12 1 8
12 3 2
12 4 9
12 5 3
12 6 4
12 7 8
12 8 10
12 9 5
12 11 7
13 0 9
13 1 4
13 2 6
13 3 2
13 5 5
13 6 4
13 8 7
13 11 3
13 12 8
14 0 4
14 2 6
14 3 7
14 4 10
14 5 3
14 6 7
14 7 1
14 8 9
14 9 7
14 10 6
14 13 8
15 0 1
15 1 4
15 2 9
15 3 1
15 4 9
15 6 8
15 7 7
15 9 2
15 10 7
15 11 3
15 13 2
15 14 2
16 0 7
16 1 4
16 2 9
16 4 7
16 6 9
16 7 6
16 8 4
16 9 2
16 12 8
16 13 5
16 14 2
16 15 6
17 1 9
17 3 3
17 6 6
17 7 6
17 9 9
17 10 2
17 11 4
17 12 2
17 13 3
17 14 10
17 15 5
17 16 9
18 2 8
18 3 1
18 6 3
18 7 4
18 8 3
18 11 9
18 12 7
18 13 4
18 14 6
18 15 7
18 16 9
19 1 3
19 3 4
19 5 9
19 6 3
19 7 3
19 8 4
19 13 1
19 16 4
19 17 8
19 18 1
20 0 8
20 1 5
20 2 3
20 3 6
20 5 2
20 7 9
20 8 7
20 9 6
20 10 9
20 11 4
20 12 3
20 13 2
20 15 7
20 16 10
20 17 9
20 18 8
20 19 7
21 0 2
21 1 6
21 2 2
21 3 8
21 5 1
21 6 10
21 8 1
21 10 10
21 11 3
21 12 8
21 13 3
21 16 8
21 17 1
21 18 2
21 19 3
21 20 3
22 2 1
22 3 2
22 4 10
22 5 4
22 7 10
22 8 1
22 9 2
22 11 6
22 12 10
22 13 10
22 14 4
22 15 9
22 16 4
22 17 9
22 18 4
22 20 1
23 0 2
23 1 9
23 3 10
23 4 4
23 6 4
23 8 3
23 9 3
23 13 6
23 15 2
23 16 1
23 18 7
23 19 10
23 21 5
23 22 2
24 0 9
24 1 7
24 2 2
24 3 4
24 4 7
24 6 1
24 7 2
24 8 3
24 9 1
24 10 9
24 11 10
24 12 1
24 13 8
24 14 5
24 15 9
24 16 1
24 17 9
24 18 7
24 20 5
24 21 4
24 22 4
24 23 1
25 0 4
25 1 8
25 3 1
25 4 3
25 7 4
25 8 2
25 10 6
25 11 5
25 12 5
25 13 7
25 14 9
25 15 5
25 16 5
25 17 10
25 18 1
25 20 10
25 21 10
25 22 5
25 23 9
25 24 5
26 0 4
26 1 6
26 2 5
26 3 2
26 4 5
26 5 3
26 8 4
26 9 9
26 10 9
26 12 9
26 14 7
26 16 6
26 17 4
26 18 4
26 20 4
26 23 1
26 24 1
27 1 1
27 2 9
27 3 7
27 5 10
27 6 6
27 7 5
27 9 9
27 10 2
27 11 10
27 12 5
27 14 8
27 16 6
27 17 8
27 18 1
27 19 6
27 20 6
27 21 4
27 23 5
27 24 4
27 25 6
27 26 5
28 0 2
28 3 4
28 5 1
28 6 4
28 7 3
28 9 5
28 10 6
28 12 4
28 13 5
28 14 2
28 15 10
28 16 1
28 19 2
28 20 2
28 21 9
28 22 1
28 23 9
28 24 1
28 26 9
28 27 8
29 0 9
29 1 7
29 5 4
29 7 5
29 8 8
29 9 6
29 10 3
29 12 8
29 13 1
29 14 10
29 16 6
29 17 8
29 18 10
29 19 8
29 20 8
29 21 8
29 22 6
29 23 9
29 24 3
29 25 4
29 26 6
30 0 7
30 1 9
30 2 9
30 3 8
30 4 8
30 6 7
30 7 2
30 9 10
30 11 8
30 13 9
30 14 2
30 15 10
30 16 5
30 17 2
30 18 8
30 19 9
30 24 8
30 25 10
30 27 8
30 28 10
30 29 10
31 0 8
31 1 4
31 4 1
31 5 1
31 7 6
31 8 6
31 10 3
31 11 9
31 14 9
31 15 7
31 17 8
31 19 4
31 20 5
31 21 2
31 22 8
31 24 9
31 25 2
31 26 1
31 27 1
31 28 9
31 30 10
32 1 9
32 2 8
32 3 5
32 4 8
32 5 10
32 6 9
32 7 9
32 8 10
32 9 4
32 10 2
32 13 8
32 16 9
32 17 5
32 18 1
32 19 6
32 21 3
32 22 3
32 23 1
32 24 10
32 25 5
32 26 7
32 29 9
32 30 5
32 31 6
33 0 8
33 2 1
33 3 8
33 4 8
33 5 3
33 6 3
33 7 9
33 8 9
33 10 2
33 11 6
33 12 6
33 14 6
33 16 4
33 17 9
33 19 4
33 20 2
33 24 8
33 25 5
33 26 7
33 27 5
33 28 6
33 29 3
33 32 4
34 0 3
34 2 10
34 3 2
34 4 9
34 5 7
34 7 10
34 8 7
34 9 8
34 10 2
34 11 9
34 12 8
34 14 10
34 15 4
34 16 1
34 17 1
34 18 7
34 20 3
34 21 7
34 25 8
34 26 9
34 30 3
34 31 2
34 32 1
34 33 3
35 0 9
35 2 5
35 3 3
35 5 4
35 6 6
35 8 7
35 9 8
35 11 1
35 12 6
35 13 1
35 14 9
35 16 2
35 17 3
35 18 7
35 19 4
35 20 6
35 21 5
35 22 8
35 23 5
35 24 8
35 25 3
35 27 6
35 28 3
35 29 2
35 30 10
35 31 4
35 33 2
35 34 2
36 1 7
36 2 7
36 3 3
36 4 4
36 5 7
36 6 7
36 7 2
36 8 8
36 9 9
36 11 4
36 12 9
36 13 7
36 14 8
36 16 1
36 19 2
36 20 6
36 21 4
36 22 2
36 24 4
36 25 10
36 26 1
36 27 2
36 28 6
36 29 5
36 30 8
36 31 7
36 34 3
37 0 6
37 2 8
37 3 4
37 4 2
37 7 1
37 8 8
37 9 6
37 10 3
37 11 5
37 14 10
37 15 4
37 16 7
37 18 10
37 19 1
37 20 8
37 22 5
37 23 5
37 24 9
37 25 2
37 26 4
37 27 7
37 29 6
37 30 4
37 31 6
37 32 7
37 33 5
37 34 3
37 36 10
38 0 8
38 1 7
38 3 6
38 4 9
38 5 9
38 6 1
38 7 3
38 8 7
38 9 10
38 11 6
38 12 8
38 13 10
38 14 3
38 16 2
38 17 1
38 18 10
38 20 9
38 21 6
38 23 2
38 24 1
38 25 3
38 27 6
38 28 9
38 29 3
38 32 9
38 33 7
38 34 1
39 0 1
39 1 7
39 3 9
39 4 8
39 5 5
39 7 2
39 10 10
39 11 6
39 12 7
39 13 7
39 14 2
39 15 5
39 17 1
39 19 3
39 20 10
39 21 8
39 24 8
39 25 5
39 26 3
39 27 1
39 28 2
39 29 5
39 30 1
39 31 9
39 32 4
39 34 4
39 35 4
39 36 7
39 37 10
39 38 4
